Comps = {frontend0, frontend1, backend0, backend1, database0, database1};
mustComps = {frontend0, frontend1};
Flavs = {tiny, medium, large};
Nodes = {n1, n2, n3, n4};
CRes = {CPU, RAM, storage, bwIn, bwOut};
NRes = {ssl, fwall, encr, avail, latency};
Flav = [{medium, large}, {medium, large}, {tiny, medium, large}, {tiny, medium, large}, {large}, {large}];
Uses = [{backend1}, {backend1}, {backend1}, {backend1}, {}, {}, {database1}, {database1}, {database1}, {database1}, {}, {}];
MAX_BOUND = 1000000;

worstBounds = [0, 0, 0, 0, 0, 0, 0, 0, 0, MAX_BOUND];
bestBounds = [MAX_BOUND - i | i in worstBounds];

comReq = array2d(CompFlavs, Res, [
  2, 227, 380, 307, 628, 1, 1, 1, 97, MAX_BOUND,
  4, 345, 288, 795, 599, 1, 1, 0, 95, MAX_BOUND,
  2, 242, 319, 290, 588, 1, 1, 1, 95, MAX_BOUND,
  2, 219, 267, 344, 725, 0, 1, 1, 95, MAX_BOUND,
  2, 241, 268, 222, 961, 1, 0, 1, 97, MAX_BOUND,
  2, 453, 275, 501, 645, 1, 1, 1, 95, MAX_BOUND,
  2, 228, 445, 474, 309, 0, 1, 1, 97, MAX_BOUND,
  2, 203, 303, 871, 668, 0, 1, 0, 96, MAX_BOUND,
  2, 362, 299, 992, 367, 1, 1, 1, 97, MAX_BOUND,
  2, 207, 355, 676, 478, 1, 0, 0, 97, MAX_BOUND,
  2, 394, 333, 909, 675, 1, 1, 1, 97, MAX_BOUND,
  2, 426, 202, 911, 835, 1, 0, 1, 96, MAX_BOUND,
]);

nodeCap = array2d(Nodes0, Res, [bestBounds[r] | r in Res] ++ [
  16, 39151, 437647, 24875, 21410, 1, 1, 1, 98, 0,
  32, 33088, 792783, 16444, 22158, 1, 1, 1, 99, 0,
  16, 81862, 419186, 20228, 23334, 1, 1, 1, 99, 0,
  16, 126894, 448293, 18878, 16853, 0, 1, 1, 99, 0,
]);

cost = array2d(Nodes0, Res, [
  0, 0, 0, 0, 0, 0, 0, 0, 0, 0, % no node
  11, 7, 20, 0, 0, 0, 0, 0, 0, 0,
  20, 8, 23, 0, 0, 0, 0, 0, 0, 0,
  18, 10, 18, 0, 0, 0, 0, 0, 0, 0,
  13, 7, 20, 0, 0, 0, 0, 0, 0, 0,
]);

cons = array2d(Nodes0, Res, [
  0, 0, 0, 0, 0, 0, 0, 0, 0, 0, % no node
  44, 14, 35, 0, 0, 0, 0, 0, 0, 0,
  34, 22, 34, 0, 0, 0, 0, 0, 0, 0,
  20, 20, 19, 0, 0, 0, 0, 0, 0, 0,
  6, 39, 27, 0, 0, 0, 0, 0, 0, 0,
]);

costWeight = 0;
consWeight = 1;

costBudget = 33248;
consBudget = 45462;

depReq = array3d(Comps, Comps, Res, [
  if c1 = frontend0 /\ c2 = backend1 /\ r = N(avail) then
    96
  elseif c1 = frontend0 /\ c2 = backend0 /\ r = N(avail) then
    96
  elseif c1 = frontend1 /\ c2 = backend1 /\ r = N(avail) then
    97
  elseif c1 = frontend1 /\ c2 = backend0 /\ r = N(avail) then
    97
  else
    worstBounds[r]
  endif | c1 in Comps, c2 in Comps, r in Res]);

linkCap = array3d(Nodes0, Nodes0, Res, [
  if ni = 0 \/ nj = 0 then
    bestBounds[r]
  elseif ni = nj /\ r = N(avail) then
    nodeCap[ni,r]
  elseif {ni, nj} = {n1, n4} /\ r = N(avail) then
    99
  elseif {ni, nj} = {n1, n3} /\ r = N(avail) then
    99
  elseif {ni, nj} = {n1, n2} /\ r = N(avail) then
    99
  elseif {ni, nj} = {n3, n4} /\ r = N(avail) then
    99
  elseif {ni, nj} = {n2, n4} /\ r = N(avail) then
    98
  elseif {ni, nj} = {n2, n3} /\ r = N(avail) then
    98
  else
    worstBounds[r]
  endif | ni in Nodes0, nj in Nodes0, r in Res]);

imp = array2d(Comps, Flavs, [
  5, 7, 9,
  3, 5, 7,
  5, 7, 10,
  4, 7, 8,
  7, 9, 10,
  1, 5, 8,
]);

